10
0 2 43 2 437 20 91 14 259 366
2 0 518 114 82 371 188 386 92 423
43 518 0 855 42 468 457 167 647 85
2 114 855 0 35 571 254 7 273 187
437 82 42 35 0 283 48 240 356 219
20 371 468 571 283 0 647 34 51 27
91 188 457 254 48 647 0 500 52 201
14 386 167 7 240 34 500 0 578 186
259 92 647 273 356 51 52 578 0 31
366 423 85 187 219 27 201 186 31 0